
  22    4
  10   10   10   10

   0   0   0   0   0   2 2 3 
   9  10  10  10  10   2 8 5 
   2  10  10  10  10   1 4 
   8  10  10  10  10   4 11 8 7 6 
   1  10  10  10  10   3 11 7 6 
   5  10  10  10  10   4 17 12 10 9 
   2  10  10  10  10   3 12 10 9 
   3  10  10  10  10   3 15 13 12 
   8  10  10  10  10   3 18 15 13 
   1  10  10  10  10   2 14 13 
   8  10  10  10  10   2 13 12 
   5  10  10  10  10   3 21 20 18 
   5  10  10  10  10   3 21 20 19 
   5  10  10  10  10   2 20 18 
   5  10  10  10  10   1 16 
   3  10  10  10  10   2 20 19 
   4  10  10  10  10   1 18 
   6  10  10  10  10   1 19 
   6  10  10  10  10   1 22
   1  10  10  10  10   1 22
  10  10  10  10  10   1 22
   0   0   0   0   0   0 
